p td 22 99
2 1
4 2
5 1
6 1
7 6
7 1
7 2
7 5
8 5
8 3
8 4
8 6
8 7
9 8
9 4
9 2
10 1
10 2
10 7
10 6
11 2
11 5
11 6
11 9
12 4
12 7
12 11
12 1
12 8
12 5
12 2
12 6
13 4
13 8
13 7
13 6
13 5
13 10
13 9
14 5
14 3
14 13
15 4
15 1
15 8
15 6
15 7
15 2
16 10
16 5
16 6
16 11
16 7
16 12
17 10
17 13
17 1
17 5
17 16
18 17
18 16
18 3
18 11
18 7
18 9
19 9
19 12
19 8
19 13
19 14
19 1
19 3
19 5
19 18
20 13
20 2
20 17
20 4
20 7
20 3
20 16
20 9
20 1
20 8
21 13
21 15
21 19
21 11
21 4
22 11
22 10
22 8
22 1
22 3
22 7
22 20
22 12
22 4
22 17
